peakDumbCharging = 11100; 
Machine = anon_enum(16); 
machineSpeed = [3700,3700,3700,3700,3700,3700,3700,3700,3700,3700,3700,3700,3700,3700,3700,3700]; 
machineLoad = [3700,3700,3700,3700,3700,3700,3700,3700,3700,3700,3700,3700,3700,3700,3700,3700]; 
Car = anon_enum(11); 
demandCar = [4160,8000,5760,10240,12280,6120,3160,3040,4800,13000,3360]; 
arrivalCar = [74,67,66,63,61,60,58,52,52,51,50]; 
departureCar = [76,71,70,71,67,64,60,55,56,57,52]; 
